Name: Ritonavir
Synon: $:00in-source
DB#: MoNA000010
InChIKey: NCDNCNXCDXHOMX-XGKFQTDJSA-N
Instrument_type: Waters Synapt G2
Formula: C37H48N6O5S2
MW: 720
ExactMass: 720.3127606360001
Comments: "computed SMILES=OC(=NC(CC=1C=CC=CC1)C(O)CC(N=C(O)C(N=C(O)N(C)CC=2N=C(SC2)C(C)C)C(C)C)CC=3C=CC=CC3)OCC=4SC=NC4" "computed InChI=InChI=1S/C37H48N6O5S2/c1-24(2)33(42-36(46)43(5)20-29-22-49-35(40-29)25(3)4)34(45)39-28(16-26-12-8-6-9-13-26)18-32(44)31(17-27-14-10-7-11-15-27)41-37(47)48-21-30-19-38-23-50-30/h6-15,19,22-25,28,31-33,44H,16-18,20-21H2,1-5H3,(H,39,45)(H,41,47)(H,42,46)/t28-,31-,32-,33-/m0/s1" "comment=Waters MSE spectrum" "SPLASH=splash10-01dj-0490400400-51a0b80eb0fdf1a6ade4" "submitter=Tobias Kind (University of California, Davis)" "MoNA Rating=2.1428571428571432"
Num Peaks: 8
140.0537 18.018018
	171.0959 18.018018
	197.0750 31.031031
	268.1487 100.000000
	296.1429 50.050050
	426.1854 65.065065
	494.3260 12.012012
	721.3204 80.080080


Name: Unknown
Synon: $:00in-source
DB#: MoNA000012
InChIKey: MXNRLFUSFKVQSK-QMMMGPOBSA-N
Precursor_type: [M+H]+
PrecursorMZ: 189.1603
Formula: H2O
MW: 18
ExactMass: 18.010564684
Comments: "computed SMILES=O" "computed InChI=InChI=1S/H2O/h1H2" "intensity=557735.9" "computed mass accuracy=899461.775626281" "computed mass error=170.14245931600001" "SPLASH=splash10-001i-9100000000-648aa5448cc68ad73dd8" "submitter=Tomas Cajka (University of California, Davis)" "MoNA Rating=1.5"
Num Peaks: 29
41.04176 2.036603
42.03746 1.781709
43.02011 0.795269
43.04417 0.280383
44.05249 2.107973
45.06017 1.223491
55.05584 1.480934
56.05169 10.988479
57.07138 1.070555
58.06694 1.600734
59.07435 0.502141
60.08278 19.433116
65.03996 0.749388
67.05566 10.231444
68.05061 0.285481
69.05874 0.958401
69.06929 0.430771
74.02474 1.266823
82.0652 0.532728
83.81781 1.068006
84.08152 100.000000
84.46619 0.415477
85.06502 2.390905
86.09612 0.693312
102.0899 0.369596
112.07497 0.448613
130.08528 20.539356
144.13811 5.806485
189.15831 7.394474


Name: Unknown
Synon: $:00in-source
DB#: MoNA000013
InChIKey: JFLIEFSWGNOPJJ-JTQLQIEISA-N
Precursor_type: [M+H]+
PrecursorMZ: 265.1188
Collision_energy: 35 eV
Formula: C13H16N2O4
MW: 264
ExactMass: 264.111006992
Comments: "computed SMILES=O=C(O)C(N=C(O)CC=1C=CC=CC1)CCC(=N)O" "computed InChI=InChI=1S/C13H16N2O4/c14-11(16)7-6-10(13(18)19)15-12(17)8-9-4-2-1-3-5-9/h1-5,10H,6-8H2,(H2,14,16)(H,15,17)(H,18,19)/t10-/m0/s1" "collision energy spread=15 eV" "computed mass accuracy=1.9500993518044845" "computed mass error=5.170080000311827E-4" "SPLASH=splash10-001i-6900000000-ea6982b6226943682255" "submitter=Tomas Cajka (University of California, Davis)" "MoNA Rating=2.7777777777777777"
Num Peaks: 21
41.04425 1.414784
56.05219 2.521348
65.04146 1.091405
83.06136 5.189227
84.04664 48.754484
85.02991 0.666970
91.05506 41.367288
101.07147 3.016523
102.05396 1.546157
129.06621 8.761558
129.63745 0.773079
130.05061 100.000000
136.0751 15.123036
147.07701 8.857562
165.11423 1.338992
207.12637 0.616442
219.11238 0.515386
220.09712 0.515386
247.10939 0.874135
248.09064 0.924663
265.11765 0.717498


Name: Unknown
Synon: $:00in-source
DB#: MoNA000014
InChIKey: MXNRLFUSFKVQSK-QMMMGPOBSA-N
Precursor_type: [M+H]+
PrecursorMZ: 265.1188
Collision_energy: 45 eV
Formula: C9H20N2O2
MW: 188
ExactMass: 188.15247788
Comments: "computed SMILES=O=C([O-])C(N)CCCC[N+](C)(C)C" "computed InChI=InChI=1S/C9H20N2O2/c1-11(2,3)7-5-4-6-8(10)9(12)13/h8H,4-7,10H2,1-3H3/t8-/m0/s1" "collision energy spread=15 eV" "computed mass accuracy=286509.4671520844" "computed mass error=75.95904612000004" "SPLASH=splash10-001i-9400000000-c37efe740d151820187a" "submitter=Tomas Cajka (University of California, Davis)" "MoNA Rating=2.2222222222222223"
Num Peaks: 10
41.04239 6.060606
56.05322 7.024793
65.04033 4.683196
83.0627 9.366391
84.0454 100.000000
91.05515 81.726354
129.0648 6.060606
130.04921 82.047750
136.07532 9.366391
147.07558 6.060606


Name: Unknown
Synon: $:00in-source
DB#: MoNA000015
InChIKey: JFLIEFSWGNOPJJ-JTQLQIEISA-N
Precursor_type: [M-H]-
PrecursorMZ: 263.1031
Collision_energy: -35 eV
Formula: C13H16N2O4
MW: 264
ExactMass: 264.111006992
Comments: "computed SMILES=O=C(O)C(N=C(O)CC=1C=CC=CC1)CCC(=N)O" "computed InChI=InChI=1S/C13H16N2O4/c14-11(16)7-6-10(13(18)19)15-12(17)8-9-4-2-1-3-5-9/h1-5,10H,6-8H2,(H2,14,16)(H,15,17)(H,18,19)/t10-/m0/s1" "collision energy spread=15 eV" "computed mass accuracy=2.3982689676642113" "computed mass error=-6.309920000262537E-4" "SPLASH=splash10-002b-0900000000-2708a471ab07f860d8fe" "submitter=Tomas Cajka (University of California, Davis)" "MoNA Rating=2.7777777777777777"
Num Peaks: 18
42.00319 5.662207
42.0105 3.257708
67.03339 1.376769
74.02538 2.171805
82.02982 0.988947
84.04305 3.781268
99.05624 1.376769
101.07294 3.160752
109.03932 21.621098
117.036 0.988947
126.64422 1.047120
127.05099 71.747140
128.03407 18.285825
144.59567 1.376769
145.06088 100.000000
146.06517 2.966841
245.08612 0.988947
263.10388 4.808997


Name: Unknown
Synon: $:00in-source
DB#: MoNA000016
InChIKey: JFLIEFSWGNOPJJ-JTQLQIEISA-N
Precursor_type: [M-H]-
PrecursorMZ: 263.1031
Collision_energy: -45 eV
Formula: C13H16N2O4
MW: 264
ExactMass: 264.111006992
Comments: "computed SMILES=O=C(O)C(N=C(O)CC=1C=CC=CC1)CCC(=N)O" "computed InChI=InChI=1S/C13H16N2O4/c14-11(16)7-6-10(13(18)19)15-12(17)8-9-4-2-1-3-5-9/h1-5,10H,6-8H2,(H2,14,16)(H,15,17)(H,18,19)/t10-/m0/s1" "collision energy spread=15 eV" "computed mass accuracy=2.3982689676642113" "computed mass error=-6.309920000262537E-4" "SPLASH=splash10-004j-1900000000-988265c3ea5a9f331c77" "submitter=Tomas Cajka (University of California, Davis)" "MoNA Rating=2.7777777777777777"
Num Peaks: 18
42.00338 16.142449
42.02441 1.481674
58.03174 3.769171
67.03143 3.509228
74.02455 7.200416
82.03152 2.573434
84.04738 12.087341
86.02357 1.715623
91.0571 1.325708
99.05679 2.261502
101.07208 6.264622
109.0414 46.243826
110.04402 2.053548
117.03362 1.325708
127.05172 100.000000
128.0332 28.957629
145.06172 90.096179
146.06261 2.989342


Name: DL-TMAP
Synon: N,N,N-Trimethyl-l-alanyl-l-proline betaine
Synon: $:00in-source
DB#: MoNA000018
InChIKey: KXONJPJIFNGMCN-UHFFFAOYSA-O
Precursor_type: [M]+
Spectrum_type: MS2
PrecursorMZ: 229.1552
Ion_mode: P
Formula: [C11H21N2O3]+
MW: 229
ExactMass: 229.1546689520907
Comments: "InChI=InChI=1/C11H20N2O3/c1-8(13(2,3)4)10(14)12-7-5-6-9(12)11(15)16/h8-9H,5-7H2,1-4H3/p+1" "computed SMILES=O=C(O)C1N(C(=O)C(C)[N+](C)(C)C)CCC1" "computed InChI=InChI=1S/C11H20N2O3/c1-8(13(2,3)4)10(14)12-7-5-6-9(12)11(15)16/h8-9H,5-7H2,1-4H3/p+1" "computed mass accuracy=4.711338947439807" "computed mass error=0.0010796278187683583" "SPLASH=splash10-006x-0900000000-273dd0b54fc65ddf6ef8" "submitter=Tobias Kind (UC Davis Genome Center)" "MoNA Rating=3.125"
Num Peaks: 9
70.065050 14.10
114.05495 2.29
114.09137 0.74
124.07573 10.56
126.09139 4.11
132.10199 1.15
142.08635 100.00
170.08131 29.53
229.15483 1.01


Name: None
Synon: $:00in-source
DB#: MoNA002362
InChIKey: RSPURTUNRHNVGF-IOSLPCCCSA-N
Precursor_type: [M+H]+
Spectrum_type: MS2
PrecursorMZ: 312.130187988281
Formula: C12H17N5O5
MW: 311
ExactMass: 311.12296864399997
Comments: "computed SMILES=OC1=NC(=NC2=C1N=CN2C3OC(CO)C(O)C3O)N(C)C" "computed InChI=InChI=1S/C12H17N5O5/c1-16(2)12-14-9-6(10(21)15-12)13-4-17(9)11-8(20)7(19)5(3-18)22-11/h4-5,7-8,11,18-20H,3H2,1-2H3,(H,14,15,21)/t5-,7-,8-,11-/m1/s1" "title=POS_MSMS141_312.2015.2015.1 File:, NativeID:controllerType=0 controllerNumber=1 scan=2015" "retention time=594.103" "charge state=1+" "origin=POS_MSMS141_312.mgf" "computed mass accuracy=0.181513102917168" "computed mass error=-5.6655718935871846E-5" "SPLASH=splash10-001i-0900000000-1163e6d68d99bda87f1a" "submitter=Mai Yamamoto (McMaster University)" "MoNA Rating=2.7777777777777777"
Num Peaks: 925
49.50156784 0.000000
49.5018959 0.000000
49.50222778 0.000000
49.50255585 0.000000
50.02066422 0.062439
50.39761734 0.063883
50.41289139 0.077224
50.83930588 0.073195
50.87095642 0.068097
51.06250763 0.000000
51.06285095 0.000000
51.06319809 0.000000
51.06354523 0.000000
51.06389236 0.008139
51.06423569 0.014244
51.06458282 0.016624
51.06492996 0.013863
51.0652771 0.008015
51.06528473 0.000000
51.06533813 0.000000
51.06568527 0.000000
51.06602859 0.000000
51.1075325 0.059292
51.15643311 0.070626
51.52140427 0.060813
51.68807983 0.072349
51.95169067 0.066997
52.12474442 0.062929
52.19477844 0.066346
52.36042404 0.058661
52.40609741 0.062065
52.50194931 0.064542
52.74891663 0.075808
53.11750412 0.068711
53.21163559 0.084619
53.42472076 0.070999
53.63834 0.067676
53.92904663 0.083789
54.17670822 0.071230
54.20281601 0.070318
54.88138199 0.084289
55.01196671 0.065105
55.06386566 0.065655
55.59950256 0.064130
56.3085556 0.063178
56.43903732 0.132282
56.66008759 0.069507
58.00567245 0.059640
58.04676056 0.068420
58.1622963 0.069424
58.27648926 0.067933
59.01215744 0.063983
59.1163559 0.075645
59.20224762 0.061896
59.33382034 0.070631
59.63845444 0.058985
59.87638474 0.092202
60.1365242 0.067607
60.18344498 0.068889
60.30808258 0.089601
60.81908035 0.066047
61.15066147 0.062504
61.26058197 0.058689
61.27877808 0.061282
61.4342308 0.070982
62.64392471 0.062714
62.66838455 0.082606
62.89771652 0.063937
62.94126892 0.060121
63.63469696 0.066191
63.80452728 0.068951
63.82773972 0.085876
64.3264389 17.441213
64.32692719 0.000000
64.3274231 0.000000
64.32791138 0.000000
64.32839966 0.001861
64.32888794 0.044433
64.32937622 0.098719
64.3298645 0.151928
64.33035278 0.141953
64.33084869 0.090776
64.33133698 0.044249
64.33182526 0.010653
64.33305359 0.000000
64.33354187 0.000000
64.33403015 0.000000
64.33452606 0.000000
64.34552002 0.068413
64.98228455 0.079425
65.25743103 0.056767
65.29695129 0.061899
65.36457062 0.064064
65.54040527 0.068442
65.56607819 0.068529
65.85610199 0.071015
66.07106018 0.074642
66.28451538 0.069003
66.45684814 0.072751
67.06897736 0.074247
68.07691956 0.072774
68.837677 0.086291
69.40512085 0.060741
69.47592926 0.061564
69.6917572 0.065864
70.3134613 0.069505
70.6113739 0.064826
70.7686615 0.066869
71.52172852 0.074030
72.56462097 0.076363
72.66204834 0.082441
73.67362976 0.068333
73.82682037 0.072384
73.8496933 0.070858
73.87257385 0.069403
74.5175705 0.070115
74.8205719 0.076817
74.8531189 0.067821
75.58826447 0.067654
75.6194458 0.062704
76.14613342 0.076165
76.16504669 0.063549
76.46605682 0.064606
77.09272003 0.077881
77.18847656 0.062774
77.41217804 0.126102
77.4225769 0.000000
77.84365082 0.062726
78.22747803 0.065328
79.16847992 0.070454
80.77617645 0.059610
80.82853699 0.073312
81.3507843 0.062984
81.826828 0.065972
82.04139709 0.085281
82.73513031 0.071747
83.14284515 0.142637
83.45220947 0.070466
83.92787933 0.060836
83.99940491 0.079070
84.11929321 0.062152
84.29520416 0.069196
84.89819336 0.071745
85.71204376 0.079201
86.41261292 0.073986
88.12223816 0.068724
88.6036377 0.080118
89.02760315 0.058975
90.23499298 0.062344
90.98356628 0.067784
91.55175781 0.061704
91.56176758 0.000000
91.82740784 0.064830
91.83750916 0.000000
92.64582062 0.063162
92.65605164 0.000000
93.06003571 0.068239
93.07028961 0.000000
93.12734222 0.066602
93.13760376 0.000000
93.57736206 0.067550
93.58770752 0.000000
93.85618591 0.074964
93.86657715 0.000000
94.04535675 0.072370
94.0557785 0.000000
96.72611237 0.067782
96.73693848 0.000000
97.02457428 0.755372
97.02548218 0.010801
97.02638245 0.028900
97.02729034 0.037888
97.02819824 0.042757
97.02910614 0.039508
97.03001404 0.033330
97.03092194 0.025312
97.0318222 0.018214
97.0327301 0.010060
97.033638 0.000000
97.0345459 0.000000
97.0354538 0.000000
97.03636169 0.000000
97.03726196 0.000000
97.03816986 0.000000
97.03907013 0.000000
97.03997803 0.000000
97.04088593 0.000000
97.04179382 0.000000
97.17341614 0.064385
97.18347931 0.000000
97.40187836 0.066318
97.41197968 0.000000
97.45843506 0.061182
97.46855164 0.000000
98.03962708 0.091817
98.04988098 0.000000
98.57958984 0.000000
98.58052063 0.000000
98.58144379 0.000000
98.58237457 0.000000
98.58330536 0.008450
98.58422852 0.017252
98.5851593 0.021359
98.58609009 0.017347
98.58701324 0.008531
98.58818054 0.000000
98.58911133 0.000000
98.59004211 0.000000
98.5909729 0.000000
98.79533386 0.070352
98.80594635 0.000000
99.17459869 0.064865
99.18519592 0.000000
100.4286575 0.070214
100.4392929 0.000000
101.2508545 0.073663
101.261734 0.000000
101.8985367 0.070660
101.9085464 0.000000
102.3773346 0.072256
102.3874817 0.000000
102.9823227 0.061186
102.9924393 0.000000
103.0140457 0.065961
103.0243607 0.000000
103.324173 0.061134
103.3341827 0.000000
103.5466919 0.098383
103.5573044 0.000000
103.9617157 0.068763
103.9725571 0.000000
106.4967651 0.065902
106.5074692 0.000000
106.5645523 0.062772
106.5751419 0.000000
106.9065857 0.074531
106.9167557 0.000000
106.9527435 0.067816
106.9633865 0.000000
107.8490829 0.063187
107.8599243 0.000000
108.0554886 0.069411
108.0662384 0.000000
108.3683395 0.067167
108.3791962 0.000000
109.920433 0.065704
109.9305725 0.000000
111.2985916 0.065571
111.308609 0.000000
113.3983307 0.071704
113.4088211 0.000000
113.487793 0.069655
113.4987564 0.000000
113.9109955 0.085045
113.9213715 0.071129
113.9317551 0.013775
114.1801682 0.066570
114.1906357 0.000000
115.4627457 0.076673
115.4733353 0.000000
116.5244751 0.069023
116.5356827 0.000000
116.9515915 0.066100
116.9627838 0.000000
117.0368118 0.061757
117.0482788 0.000000
117.8153229 0.072276
117.8270874 0.000000
118.7279816 0.000000
118.7292099 0.000000
118.7304382 0.000000
118.7316666 0.000000
118.7328949 0.010428
118.7341232 0.016301
118.7353439 0.017942
118.7365723 0.014207
118.7378006 0.007576
118.7390823 0.000000
118.7403107 0.000000
118.741539 0.000000
118.7427673 0.000000
118.8692322 0.069108
118.8806305 0.000000
118.9184189 0.074634
118.9296875 0.000000
119.79039 0.062815
119.8021393 0.000000
120.8318405 0.062837
120.8419189 0.013781
120.9087296 0.060110
120.9188156 0.008061
120.9629745 0.064500
120.9730682 0.009293
121.1955032 0.069873
121.2056274 0.010751
121.8192978 0.054303
121.8295059 0.008053
121.9635468 0.053751
121.9737625 0.007313
124.6493073 0.061387
124.6598663 0.010338
124.9177094 0.054719
124.9283066 0.006989
125.7963791 0.074671
125.8070908 0.008059
127.1631393 0.065431
127.1740189 0.009759
127.2216492 0.061646
127.2325363 0.010366
127.5325546 0.059740
127.5434875 0.007232
127.7760773 0.057004
127.7870331 0.007565
128.6851196 0.059661
128.6961975 0.009145
129.0625916 0.000000
129.0639801 0.000000
129.0653687 0.000000
129.0667572 0.000000
129.0681458 0.012888
129.0695496 0.019518
129.0709381 0.020269
129.0723267 0.014240
129.0737152 0.005777
129.0755615 0.000000
129.0769501 0.000000
129.0783386 0.000000
129.0797424 0.000000
129.0931854 0.054104
129.1043243 0.009531
129.1892395 0.067043
129.2003784 0.012256
129.454361 0.062167
129.4655457 0.009058
130.2783813 0.060153
130.2896729 0.007487
131.2314301 0.102889
131.2428436 0.033101
131.5514374 0.048617
131.5614471 0.023629
132.4042664 0.057924
132.4143829 0.026449
133.7336121 0.038658
133.7438812 0.025568
133.996582 0.045061
134.0068817 0.025214
134.6226044 0.039961
134.6329803 0.023557
137.0736542 0.042423
137.0843048 0.024922
138.373703 0.047076
138.3845062 0.020330
138.6954193 0.044390
138.7062531 0.029323
140.5118713 0.045046
140.522934 0.034092
140.8077698 0.042774
140.8188782 0.029273
141.0394592 0.049211
141.0505829 0.034138
141.2016602 0.045796
141.2127991 0.021132
141.3912354 0.052263
141.4024048 0.028966
144.1271057 0.043241
144.1385956 0.103616
144.1501465 0.000000
144.3670349 0.044509
144.37854 0.022536
144.7329865 0.048889
144.7445526 0.023948
144.9926453 0.047911
145.0042419 0.020221
146.1823425 0.021293
146.1924133 0.044100
146.2027893 0.000000
148.2424927 0.022589
148.2527618 0.039812
148.2633667 0.000000
150.5478516 0.021790
150.5583649 0.050868
150.569046 0.000000
151.1576843 0.025101
151.1682587 0.053551
151.1790924 0.000000
151.6383209 0.024688
151.648941 0.042944
151.6598206 0.000000
151.7517395 0.032961
151.7623749 0.044368
151.7732849 0.000000
151.9238892 0.026254
151.9345398 0.044581
151.9454651 0.000000
151.9665222 0.029615
151.9771881 0.042631
151.9878235 0.000000
152.0198517 0.027779
152.0305176 0.049215
152.0413055 0.000000
153.236084 0.021805
153.2468719 0.047240
153.2579346 0.000000
153.2810669 0.033173
153.2918701 0.043582
153.3027496 0.000000
153.9166718 0.023441
153.927536 0.039590
153.9385681 0.000000
159.8941956 0.023860
159.9057007 0.045425
159.9174042 0.000000
161.0918427 0.028743
161.1034851 0.052752
161.1153107 0.000000
162.0659485 0.023022
162.0776978 0.043514
162.0894318 0.000000
162.6664581 0.023435
162.6782684 0.071511
162.690155 0.000000
164.0947418 0.023090
164.1067047 0.043947
164.1167603 0.000000
164.9916687 0.007296
165.001709 0.068228
165.0118561 0.000000
166.6443481 0.008186
166.6545563 0.060659
166.6648407 0.000000
166.9610901 0.008909
166.9713135 0.064881
166.9816437 0.000000
167.8238831 0.010790
167.834198 0.063077
167.845047 0.000000
168.5853729 0.013214
168.5957489 0.067976
168.6062164 0.000000
171.995697 0.011882
172.0063934 0.064460
172.0170746 0.000000
172.4093933 0.009017
172.4201202 0.069015
172.430954 0.000000
173.6313171 0.009838
173.6421814 0.067997
173.6530304 0.000000
174.1555328 0.008817
174.1664276 0.060128
174.1773376 0.000000
175.4423065 0.006965
175.4533234 0.066332
175.4640656 0.000000
180.0588989 0.104958
180.0611877 0.421645
180.0634766 1.083121
180.0657806 1.893724
180.0680695 2.389582
180.0703583 8.026530
180.0726471 29.160503
180.0749359 62.057548
180.07724 97.341217
180.0795288 100.000000
180.0818176 66.292825
180.0841064 34.519693
180.0863953 12.794718
180.0886993 6.558604
180.0909882 4.550198
180.093277 2.595901
180.0955658 1.147343
180.0978699 0.260374
180.1001587 0.076097
180.1024475 0.038884
180.1047363 0.003760
180.1073303 0.000000
180.1096191 0.000000
180.111908 0.000000
180.1141968 0.000000
181.8088379 0.008477
181.8204651 0.058570
181.8325043 0.000000
183.3321991 0.007343
183.3439789 0.054004
183.3560944 0.000000
186.3305817 0.010069
186.3426514 0.062350
186.3530121 0.000000
187.7207336 0.008509
187.7329254 0.069691
187.7452393 0.000000
187.925827 0.009036
187.9380493 0.057372
187.9489136 0.000000
188.6635284 0.008818
188.6758118 0.071356
188.6882324 0.000000
189.0401764 0.007516
189.0525055 0.079588
189.0648346 0.000000
192.775589 0.009342
192.7781219 0.016237
192.7806702 0.018609
192.7832031 0.015120
192.7857513 0.019920
192.7882843 0.018327
192.7908173 0.020425
192.7933655 0.015949
192.7958984 0.007993
192.7984467 0.000000
192.8009796 0.000000
192.8035278 0.000000
192.8060608 0.000000
193.1187897 0.000000
193.1289825 0.058734
193.1391602 0.006560
193.149353 0.000000
193.5344086 0.000000
193.5446167 0.056799
193.5548401 0.007418
193.5650787 0.000000
194.8331451 0.000000
194.8357239 0.000000
194.8383026 0.000000
194.8408813 0.000000
194.8434601 0.009578
194.8460541 0.017622
194.8486328 0.020239
194.8512115 0.015283
194.8537903 0.006599
194.8570862 0.000000
194.8596649 0.000000
194.8622589 0.000000
194.8648376 0.000000
198.1483917 0.000000
198.1589661 0.068075
198.1695557 0.008454
198.1811218 0.000000
200.0617676 0.000000
200.0724945 0.065524
200.0832367 0.009112
200.094162 0.000000
200.4165497 0.000000
200.4273071 0.060066
200.4380798 0.008347
200.4489288 0.000000
201.945816 0.000000
201.9567108 0.064676
201.9675903 0.011022
201.9789124 0.000000
202.3629456 0.000000
202.3738708 0.060756
202.3847961 0.008830
202.3959045 0.000000
204.6680145 0.000000
204.6791229 0.059626
204.6902313 0.010679
204.7015533 0.000000
211.1358948 0.000000
211.1475372 0.065477
211.1591797 0.006718
211.1713257 0.000000
212.9871368 0.000000
212.9989319 0.065305
213.0107269 0.013739
213.022522 0.000000
213.9634552 0.000000
213.9753418 0.065361
213.9872131 0.010622
213.9993286 0.000000
216.6999359 0.000000
216.7120361 0.062402
216.7241364 0.008548
216.7366943 0.000000
217.7720184 0.000000
217.7842102 0.060831
217.796402 0.009227
217.808609 0.000000
220.460907 0.000000
220.4733276 0.063206
220.4857483 0.008985
220.4958496 0.000000
221.7770538 0.000000
221.7895966 0.060990
221.802124 0.007966
221.8148804 0.000000
222.0561371 0.000000
222.0686951 0.063250
222.0812531 0.012121
222.0940704 0.000000
224.534317 0.000000
224.5470886 0.062094
224.559845 0.009402
224.5727081 0.000000
224.6268921 0.000000
224.639679 0.066661
224.6524506 0.007550
224.6626129 0.000000
224.8569946 0.000000
224.8697815 0.069991
224.8825836 0.012864
224.8953857 0.062356
224.9081726 0.013041
224.9213409 0.000000
226.7397461 0.000000
226.7527008 0.064487
226.7656555 0.007548
226.7788544 0.000000
228.7512817 0.000000
228.7644043 0.075658
228.7775421 0.006534
228.7906799 0.000000
229.6894531 0.000000
229.702652 0.056860
229.7158661 0.007600
229.7264557 0.000000
231.3093262 0.000000
231.3193359 0.026667
231.3293457 0.046185
231.3393555 0.000000
231.3493652 0.000000
235.1711273 0.000000
235.1813965 0.023481
235.1916656 0.044202
235.2020721 0.000000
235.212326 0.000000
240.2250824 0.000000
240.2356873 0.022874
240.2462769 0.045967
240.2575226 0.000000
240.2681122 0.000000
241.66185 0.000000
241.6725311 0.032840
241.6832275 0.044029
241.6945648 0.000000
241.705246 0.000000
244.9666748 0.000000
244.9775848 0.025863
244.9885101 0.043440
244.9994202 0.000000
245.0103302 0.000000
249.4122772 0.000000
249.4234772 0.026829
249.4346924 0.043023
249.4464111 0.000000
249.4576263 0.000000
250.0786591 0.000000
250.0899048 0.034689
250.1011658 0.047693
250.1124115 0.000000
250.1236725 0.000000
252.6834259 0.000000
252.6948547 0.024293
252.7062836 0.042806
252.7182465 0.000000
252.7296753 0.000000
253.6386261 0.000000
253.650116 0.022108
253.6616211 0.058492
253.673111 0.000000
253.6846161 0.000000
253.8226318 0.000000
253.8341522 0.027806
253.8456573 0.051400
253.8576508 0.000000
253.8691559 0.000000
254.4990845 0.000000
254.5106506 0.024106
254.5222015 0.042766
254.5340576 0.000000
254.5456238 0.000000
254.9000702 0.000000
254.9116516 0.027071
254.923233 0.042058
254.9349823 0.000000
254.9465637 0.000000
256.587616 0.000000
256.5993042 0.026802
256.6110229 0.044525
256.6231995 0.000000
256.6349182 0.000000
258.2920532 0.000000
258.3038635 0.026780
258.3156738 0.045474
258.3274841 0.000000
258.3392944 0.000000
262.6501465 0.000000
262.662262 0.032896
262.6743774 0.052247
262.6869202 0.000000
262.6990356 0.000000
263.7965393 0.000000
263.8087463 0.026159
263.8209229 0.042056
263.8332825 0.000000
263.845459 0.000000
265.2206421 0.000000
265.2329407 0.022158
265.2452393 0.041807
265.2575378 0.000000
265.2698364 0.000000
268.4663086 0.000000
268.4788208 0.035104
268.4913635 0.046938
268.5041809 0.000000
268.5166931 0.000000
268.8798828 0.000000
268.8924255 0.025035
268.9049683 0.049973
268.9178772 0.000000
268.9304504 0.000000
272.828949 0.000000
272.8417664 0.026114
272.8545837 0.042053
272.8677673 0.000000
272.8805847 0.000000
275.151947 0.000000
275.1649475 0.029306
275.1779175 0.048308
275.190918 0.000000
275.2039185 0.000000
275.6853027 0.000000
275.6896362 0.000000
275.6940002 0.000000
275.6983337 0.000000
275.7026672 0.012456
275.7070007 0.020242
275.7113647 0.023574
275.7156982 0.020581
275.7200317 0.013155
275.7244263 0.000000
275.7287598 0.000000
275.7331238 0.000000
275.7374573 0.000000
279.5994568 0.000000
279.6127625 0.022565
279.6260681 0.043322
279.6395569 0.000000
279.6528625 0.000000
284.5422058 0.000000
284.5467529 0.000000
284.5513 0.000000
284.5558777 0.000000
284.5604248 0.012375
284.5649719 0.019139
284.569519 0.021543
284.5740967 0.017829
284.5786438 0.010312
284.5834045 0.000000
284.5879517 0.000000
284.5925293 0.000000
284.5970764 0.000000
288.164032 0.000000
288.177948 0.025174
288.191864 0.046501
288.2061768 0.000000
288.2200928 0.000000
292.7941284 0.000000
292.8083801 0.030574
292.8226624 0.050460
292.8370972 0.000000
292.8513489 0.000000
293.1746826 0.000000
293.1889648 0.026626
293.2032471 0.043993
293.2177429 0.000000
293.2320251 0.000000
295.1079407 0.000000
295.1223755 0.031190
295.1368103 0.044002
295.1512451 0.000000
295.1656799 0.000000
296.1107178 0.000000
296.1252136 0.025755
296.1397095 0.052074
296.1542969 0.000000
296.1687927 0.000000
297.0214539 0.000000
297.0360413 0.024215
297.0505981 0.052882
297.065155 0.000000
297.0797424 0.000000
297.3762512 0.000000
297.3908386 0.025086
297.405426 0.053620
297.420105 0.000000
297.4346924 0.000000
301.4550781 0.000000
301.4699707 0.024753
301.4848633 0.044087
301.4998169 0.000000
301.5147095 0.000000
305.7197876 0.000000
305.7299194 0.000000
305.7400818 0.025311
305.7502136 0.037441
305.7603455 0.011521
305.7705383 0.000000
305.7806702 0.000000
306.5886841 0.000000
306.598877 0.000000
306.6090393 0.026601
306.6192322 0.033055
306.629425 0.009763
306.6396484 0.000000
306.6498108 0.000000
311.9120178 0.000000
311.9172363 0.000000
311.9224548 0.000000
311.9276733 0.163115
311.9329224 0.441954
311.9381409 0.770261
311.9433594 0.828294
311.9485779 0.615252
311.9538269 0.313440
311.9590454 0.083288
311.9642639 0.005683
311.9673157 0.000000
311.9725647 0.000000
311.9777832 0.000000
311.9830017 0.000000
312.0875854 0.000000
312.092804 0.000000
312.0980225 0.000000
312.1032715 0.055065
312.10849 0.239058
312.113739 0.554627
312.1189575 0.901818
312.124176 0.972878
312.129425 0.691967
312.1346436 0.355696
312.1398926 0.116071
312.1451111 0.016604
312.1503296 0.000000
312.1555786 0.000000
312.1607971 0.000000
312.1660461 0.000000
312.1891174 0.000000
312.199585 0.024972
312.2100525 0.396796
312.22052 0.630678
312.2309875 0.228379
312.2414551 0.000000
312.2519226 0.000000
312.9859619 0.000000
312.99646 0.000000
313.006958 0.027538
313.0174561 0.037008
313.0279846 0.009548
313.0386047 0.000000
313.0491028 0.000000
313.4065552 0.000000
313.4170837 0.000000
313.4276123 0.025863
313.4381409 0.041827
313.4486694 0.012023
313.459198 0.000000
313.4697266 0.000000
316.4868774 0.000000
316.4975586 0.000000
316.5082397 0.036440
316.5189209 0.048036
316.5296326 0.010831
316.5403137 0.000000
316.5509949 0.000000
316.9787903 0.000000
316.989502 0.000000
317.0002136 0.025089
317.0109253 0.034742
317.021637 0.008210
317.0323486 0.000000
317.0430603 0.000000
319.8730774 0.000000
319.8839417 0.000000
319.8947754 0.027737
319.9056396 0.036110
319.9165039 0.009311
319.9273376 0.000000
319.9382019 0.000000
320.6287231 0.000000
320.6395874 0.000000
320.6504822 0.025078
320.661377 0.036348
320.6722717 0.009615
320.6831665 0.000000
320.6940613 0.000000
323.0658875 0.000000
323.0769043 0.000000
323.0879211 0.026599
323.098938 0.035540
323.1099548 0.008056
323.1209717 0.000000
323.1319885 0.000000
324.3530884 0.000000
324.3641663 0.000000
324.3752747 0.030255
324.3863525 0.039133
324.3974304 0.010101
324.4085083 0.000000
324.4195862 0.000000
326.7769165 0.000000
326.788147 0.000000
326.7993469 0.031225
326.8105469 0.039399
326.8217468 0.007293
326.8329773 0.000000
326.8441772 0.000000
331.6781616 0.000000
331.6896057 0.000000
331.7010803 0.033424
331.7125244 0.038465
331.723999 0.008671
331.7354736 0.000000
331.7469177 0.000000
334.7533264 0.000000
334.7649231 0.000000
334.7765503 0.029662
334.7881775 0.035295
334.7998047 0.009371
334.8114014 0.000000
334.8230286 0.000000
338.3762207 0.000000
338.3821411 0.000000
338.388031 0.000000
338.3939514 0.000000


Name: 2-MAHMA [DMED-FAHFA]; [14:0-(2-O-14:0)];
Synon: $:00 ms2
Synon: $:05 30V CID
Synon: $:07 In-Silico-Spectrum
Synon: $:00in-source
DB#: MoNA011525
InChIKey: SMILJTIKSGRGNQ-UHFFFAOYSA-N
Precursor_type: [M+H]+
PrecursorMZ: 525.49897
Ion_mode: P
Comments: "molecular weight=524.491694" "formula=C32H64N2O3" "compound class=DMED-FAHFA" "isobars=12" "precursor [m+h]+=525.49897" "c2h7n loss (-45.0578462)=480.441124" "fa loss=297.290589" "fa loss-c2h7n (-45.0578462)=252.232743" "origin=DMED-FAHFA-Hpos-30V.msp" "SPLASH=splash10-0fb9-0090280000-c947285da51158330067" "submitter=Jun Ding (UC davis)" "MoNA Rating=0.33333333333333326"
Num Peaks: 4
525.498970 100.000000
480.441124 30.030030
297.290589 40.040040
252.232743 60.060060


Name: 3-MAHMA [DMED-FAHFA]; [14:0-(3-O-14:0)];
Synon: $:00 ms2
Synon: $:05 30V CID
Synon: $:07 In-Silico-Spectrum
Synon: $:00in-source
DB#: MoNA011526
InChIKey: VGGSWIKXJIQHSQ-UHFFFAOYSA-N
Precursor_type: [M+H]+
PrecursorMZ: 525.49897
Ion_mode: P
Comments: "molecular weight=524.491694" "formula=C32H64N2O3" "compound class=DMED-FAHFA" "isobars=12" "precursor [m+h]+=525.49897" "c2h7n loss (-45.0578462)=480.441124" "fa loss=297.290589" "fa loss-c2h7n (-45.0578462)=252.232743" "origin=DMED-FAHFA-Hpos-30V.msp" "SPLASH=splash10-0fb9-0090280000-c947285da51158330067" "submitter=Jun Ding (UC davis)" "MoNA Rating=0.33333333333333326"
Num Peaks: 4
525.498970 100.000000
480.441124 30.030030
297.290589 40.040040
252.232743 60.060060


Name: 4-MAHMA [DMED-FAHFA]; [14:0-(4-O-14:0)];
Synon: $:00 ms2
Synon: $:05 30V CID
Synon: $:07 In-Silico-Spectrum
Synon: $:00in-source
DB#: MoNA011527
InChIKey: QDLYPONYDBAMAO-UHFFFAOYSA-N
Precursor_type: [M+H]+
PrecursorMZ: 525.49897
Ion_mode: P
Comments: "molecular weight=524.491694" "formula=C32H64N2O3" "compound class=DMED-FAHFA" "isobars=12" "precursor [m+h]+=525.49897" "c2h7n loss (-45.0578462)=480.441124" "fa loss=297.290589" "fa loss-c2h7n (-45.0578462)=252.232743" "origin=DMED-FAHFA-Hpos-30V.msp" "SPLASH=splash10-0fb9-0090280000-c947285da51158330067" "submitter=Jun Ding (UC davis)" "MoNA Rating=0.33333333333333326"
Num Peaks: 4
525.498970 100.000000
480.441124 30.030030
297.290589 40.040040
252.232743 60.060060


Name: 5-MAHMA [DMED-FAHFA]; [14:0-(5-O-14:0)];
Synon: $:00 ms2
Synon: $:05 30V CID
Synon: $:07 In-Silico-Spectrum
Synon: $:00in-source
DB#: MoNA011528
InChIKey: DMZDOOGMHURVGA-UHFFFAOYSA-N
Precursor_type: [M+H]+
PrecursorMZ: 525.49897
Ion_mode: P
Comments: "molecular weight=524.491694" "formula=C32H64N2O3" "compound class=DMED-FAHFA" "isobars=12" "precursor [m+h]+=525.49897" "c2h7n loss (-45.0578462)=480.441124" "fa loss=297.290589" "fa loss-c2h7n (-45.0578462)=252.232743" "origin=DMED-FAHFA-Hpos-30V.msp" "SPLASH=splash10-0fb9-0090280000-c947285da51158330067" "submitter=Jun Ding (UC davis)" "MoNA Rating=0.33333333333333326"
Num Peaks: 4
525.498970 100.000000
480.441124 30.030030
297.290589 40.040040
252.232743 60.060060


Name: 6-MAHMA [DMED-FAHFA]; [14:0-(6-O-14:0)];
Synon: $:00 ms2
Synon: $:05 30V CID
Synon: $:07 In-Silico-Spectrum
Synon: $:00in-source
DB#: MoNA011529
InChIKey: WWVNRPISBOPYKM-UHFFFAOYSA-N
Precursor_type: [M+H]+
PrecursorMZ: 525.49897
Ion_mode: P
Comments: "molecular weight=524.491694" "formula=C32H64N2O3" "compound class=DMED-FAHFA" "isobars=12" "precursor [m+h]+=525.49897" "c2h7n loss (-45.0578462)=480.441124" "fa loss=297.290589" "fa loss-c2h7n (-45.0578462)=252.232743" "origin=DMED-FAHFA-Hpos-30V.msp" "SPLASH=splash10-0fb9-0090280000-c947285da51158330067" "submitter=Jun Ding (UC davis)" "MoNA Rating=0.33333333333333326"
Num Peaks: 4
525.498970 100.000000
480.441124 30.030030
297.290589 40.040040
252.232743 60.060060


Name: 7-MAHMA [DMED-FAHFA]; [14:0-(7-O-14:0)];
Synon: $:00 ms2
Synon: $:05 30V CID
Synon: $:07 In-Silico-Spectrum
Synon: $:00in-source
DB#: MoNA011530
InChIKey: QWDVYTIIMGPYNW-UHFFFAOYSA-N
Precursor_type: [M+H]+
PrecursorMZ: 525.49897
Ion_mode: P
Comments: "molecular weight=524.491694" "formula=C32H64N2O3" "compound class=DMED-FAHFA" "isobars=12" "precursor [m+h]+=525.49897" "c2h7n loss (-45.0578462)=480.441124" "fa loss=297.290589" "fa loss-c2h7n (-45.0578462)=252.232743" "origin=DMED-FAHFA-Hpos-30V.msp" "SPLASH=splash10-0fb9-0090280000-c947285da51158330067" "submitter=Jun Ding (UC davis)" "MoNA Rating=0.33333333333333326"
Num Peaks: 4
525.498970 100.000000
480.441124 30.030030
297.290589 40.040040
252.232743 60.060060


Name: 8-MAHMA [DMED-FAHFA]; [14:0-(8-O-14:0)];
Synon: $:00 ms2
Synon: $:05 30V CID
Synon: $:07 In-Silico-Spectrum
Synon: $:00in-source
DB#: MoNA011531
InChIKey: LPFIKOAXWLXFLD-UHFFFAOYSA-N
Precursor_type: [M+H]+
PrecursorMZ: 525.49897
Ion_mode: P
Comments: "molecular weight=524.491694" "formula=C32H64N2O3" "compound class=DMED-FAHFA" "isobars=12" "precursor [m+h]+=525.49897" "c2h7n loss (-45.0578462)=480.441124" "fa loss=297.290589" "fa loss-c2h7n (-45.0578462)=252.232743" "origin=DMED-FAHFA-Hpos-30V.msp" "SPLASH=splash10-0fb9-0090280000-c947285da51158330067" "submitter=Jun Ding (UC davis)" "MoNA Rating=0.33333333333333326"
Num Peaks: 4
525.498970 100.000000
480.441124 30.030030
297.290589 40.040040
252.232743 60.060060


Name: 9-MAHMA [DMED-FAHFA]; [14:0-(9-O-14:0)];
Synon: $:00 ms2
Synon: $:05 30V CID
Synon: $:07 In-Silico-Spectrum
Synon: $:00in-source
DB#: MoNA011532
InChIKey: GTTMYIFZPHMCPW-UHFFFAOYSA-N
Precursor_type: [M+H]+
PrecursorMZ: 525.49897
Ion_mode: P
Comments: "molecular weight=524.491694" "formula=C32H64N2O3" "compound class=DMED-FAHFA" "isobars=12" "precursor [m+h]+=525.49897" "c2h7n loss (-45.0578462)=480.441124" "fa loss=297.290589" "fa loss-c2h7n (-45.0578462)=252.232743" "origin=DMED-FAHFA-Hpos-30V.msp" "SPLASH=splash10-0fb9-0090280000-c947285da51158330067" "submitter=Jun Ding (UC davis)" "MoNA Rating=0.33333333333333326"
Num Peaks: 4
525.498970 100.000000
480.441124 30.030030
297.290589 40.040040
252.232743 60.060060


Name: 10-MAHMA [DMED-FAHFA]; [14:0-(10-O-14:0)];
Synon: $:00 ms2
Synon: $:05 30V CID
Synon: $:07 In-Silico-Spectrum
Synon: $:00in-source
DB#: MoNA011533
InChIKey: DAZUUTMGODWUIB-UHFFFAOYSA-N
Precursor_type: [M+H]+
PrecursorMZ: 525.49897
Ion_mode: P
Comments: "molecular weight=524.491694" "formula=C32H64N2O3" "compound class=DMED-FAHFA" "isobars=12" "precursor [m+h]+=525.49897" "c2h7n loss (-45.0578462)=480.441124" "fa loss=297.290589" "fa loss-c2h7n (-45.0578462)=252.232743" "origin=DMED-FAHFA-Hpos-30V.msp" "SPLASH=splash10-0fb9-0090280000-c947285da51158330067" "submitter=Jun Ding (UC davis)" "MoNA Rating=0.33333333333333326"
Num Peaks: 4
525.498970 100.000000
480.441124 30.030030
297.290589 40.040040
252.232743 60.060060


Name: 11-MAHMA [DMED-FAHFA]; [14:0-(11-O-14:0)];
Synon: $:00 ms2
Synon: $:05 30V CID
Synon: $:07 In-Silico-Spectrum
Synon: $:00in-source
DB#: MoNA011534
InChIKey: NVWCXYQZGNJXIF-UHFFFAOYSA-N
Precursor_type: [M+H]+
PrecursorMZ: 525.49897
Ion_mode: P
Comments: "molecular weight=524.491694" "formula=C32H64N2O3" "compound class=DMED-FAHFA" "isobars=12" "precursor [m+h]+=525.49897" "c2h7n loss (-45.0578462)=480.441124" "fa loss=297.290589" "fa loss-c2h7n (-45.0578462)=252.232743" "origin=DMED-FAHFA-Hpos-30V.msp" "SPLASH=splash10-0fb9-0090280000-c947285da51158330067" "submitter=Jun Ding (UC davis)" "MoNA Rating=0.33333333333333326"
Num Peaks: 4
525.498970 100.000000
480.441124 30.030030
297.290589 40.040040
252.232743 60.060060


Name: 12-MAHMA [DMED-FAHFA]; [14:0-(12-O-14:0)];
Synon: $:00 ms2
Synon: $:05 30V CID
Synon: $:07 In-Silico-Spectrum
Synon: $:00in-source
DB#: MoNA011535
InChIKey: ALTAXJAXFGIBKH-UHFFFAOYSA-N
Precursor_type: [M+H]+
PrecursorMZ: 525.49897
Ion_mode: P
Comments: "molecular weight=524.491694" "formula=C32H64N2O3" "compound class=DMED-FAHFA" "isobars=12" "precursor [m+h]+=525.49897" "c2h7n loss (-45.0578462)=480.441124" "fa loss=297.290589" "fa loss-c2h7n (-45.0578462)=252.232743" "origin=DMED-FAHFA-Hpos-30V.msp" "SPLASH=splash10-0fb9-0090280000-c947285da51158330067" "submitter=Jun Ding (UC davis)" "MoNA Rating=0.33333333333333326"
Num Peaks: 4
525.498970 100.000000
480.441124 30.030030
297.290589 40.040040
252.232743 60.060060


Name: 13-MAHMA [DMED-FAHFA]; [14:0-(13-O-14:0)];
Synon: $:00 ms2
Synon: $:05 30V CID
Synon: $:07 In-Silico-Spectrum
Synon: $:00in-source
DB#: MoNA011536
InChIKey: ARTFCZGIDJRWMN-UHFFFAOYSA-N
Precursor_type: [M+H]+
PrecursorMZ: 525.49897
Ion_mode: P
Comments: "molecular weight=524.491694" "formula=C32H64N2O3" "compound class=DMED-FAHFA" "isobars=12" "precursor [m+h]+=525.49897" "c2h7n loss (-45.0578462)=480.441124" "fa loss=297.290589" "fa loss-c2h7n (-45.0578462)=252.232743" "origin=DMED-FAHFA-Hpos-30V.msp" "SPLASH=splash10-0fb9-0090280000-c947285da51158330067" "submitter=Jun Ding (UC davis)" "MoNA Rating=0.33333333333333326"
Num Peaks: 4
525.498970 100.000000
480.441124 30.030030
297.290589 40.040040
252.232743 60.060060


Name: 2-MAHPDA [DMED-FAHFA]; [14:0-(2-O-15:0)];
Synon: $:00 ms2
Synon: $:05 30V CID
Synon: $:07 In-Silico-Spectrum
Synon: $:00in-source
DB#: MoNA011537
InChIKey: GZDWOIUMRXJBSI-UHFFFAOYSA-N
Precursor_type: [M+H]+
PrecursorMZ: 539.51462
Ion_mode: P
Comments: "molecular weight=538.507344" "formula=C33H66N2O3" "compound class=DMED-FAHFA" "isobars=13" "precursor [m+h]+=539.51462" "c2h7n loss (-45.0578462)=494.456774" "fa loss=311.306239" "fa loss-c2h7n (-45.0578462)=266.248393" "origin=DMED-FAHFA-Hpos-30V.msp" "SPLASH=splash10-00kr-0053290000-93ea717e82d568a376ed" "submitter=Jun Ding (UC davis)" "MoNA Rating=0.33333333333333326"
Num Peaks: 4
539.514620 100.000000
494.456774 30.030030
311.306239 40.040040
266.248393 60.060060


Name: 3-MAHPDA [DMED-FAHFA]; [14:0-(3-O-15:0)];
Synon: $:00 ms2
Synon: $:05 30V CID
Synon: $:07 In-Silico-Spectrum
Synon: $:00in-source
DB#: MoNA011538
InChIKey: ZWWQZYZWLHLSTJ-UHFFFAOYSA-N
Precursor_type: [M+H]+
PrecursorMZ: 539.51462
Ion_mode: P
Comments: "molecular weight=538.507344" "formula=C33H66N2O3" "compound class=DMED-FAHFA" "isobars=13" "precursor [m+h]+=539.51462" "c2h7n loss (-45.0578462)=494.456774" "fa loss=311.306239" "fa loss-c2h7n (-45.0578462)=266.248393" "origin=DMED-FAHFA-Hpos-30V.msp" "SPLASH=splash10-00kr-0053290000-93ea717e82d568a376ed" "submitter=Jun Ding (UC davis)" "MoNA Rating=0.33333333333333326"
Num Peaks: 4
539.514620 100.000000
494.456774 30.030030
311.306239 40.040040
266.248393 60.060060


Name: 4-MAHPDA [DMED-FAHFA]; [14:0-(4-O-15:0)];
Synon: $:00 ms2
Synon: $:05 30V CID
Synon: $:07 In-Silico-Spectrum
Synon: $:00in-source
DB#: MoNA011539
InChIKey: KYJLDBYSTGSMFU-UHFFFAOYSA-N
Precursor_type: [M+H]+
PrecursorMZ: 539.51462
Ion_mode: P
Comments: "molecular weight=538.507344" "formula=C33H66N2O3" "compound class=DMED-FAHFA" "isobars=13" "precursor [m+h]+=539.51462" "c2h7n loss (-45.0578462)=494.456774" "fa loss=311.306239" "fa loss-c2h7n (-45.0578462)=266.248393" "origin=DMED-FAHFA-Hpos-30V.msp" "SPLASH=splash10-00kr-0053290000-93ea717e82d568a376ed" "submitter=Jun Ding (UC davis)" "MoNA Rating=0.33333333333333326"
Num Peaks: 4
539.514620 100.000000
494.456774 30.030030
311.306239 40.040040
266.248393 60.060060


Name: 5-MAHPDA [DMED-FAHFA]; [14:0-(5-O-15:0)];
Synon: $:00 ms2
Synon: $:05 30V CID
Synon: $:07 In-Silico-Spectrum
Synon: $:00in-source
DB#: MoNA011540
InChIKey: WQXGNYSIHQCCEN-UHFFFAOYSA-N
Precursor_type: [M+H]+
PrecursorMZ: 539.51462
Ion_mode: P
Comments: "molecular weight=538.507344" "formula=C33H66N2O3" "compound class=DMED-FAHFA" "isobars=13" "precursor [m+h]+=539.51462" "c2h7n loss (-45.0578462)=494.456774" "fa loss=311.306239" "fa loss-c2h7n (-45.0578462)=266.248393" "origin=DMED-FAHFA-Hpos-30V.msp" "SPLASH=splash10-00kr-0053290000-93ea717e82d568a376ed" "submitter=Jun Ding (UC davis)" "MoNA Rating=0.33333333333333326"
Num Peaks: 4
539.514620 100.000000
494.456774 30.030030
311.306239 40.040040
266.248393 60.060060


Name: 6-MAHPDA [DMED-FAHFA]; [14:0-(6-O-15:0)];
Synon: $:00 ms2
Synon: $:05 30V CID
Synon: $:07 In-Silico-Spectrum
Synon: $:00in-source
DB#: MoNA011541
InChIKey: JZNPFCNAAQJUQQ-UHFFFAOYSA-N
Precursor_type: [M+H]+
PrecursorMZ: 539.51462
Ion_mode: P
Comments: "molecular weight=538.507344" "formula=C33H66N2O3" "compound class=DMED-FAHFA" "isobars=13" "precursor [m+h]+=539.51462" "c2h7n loss (-45.0578462)=494.456774" "fa loss=311.306239" "fa loss-c2h7n (-45.0578462)=266.248393" "origin=DMED-FAHFA-Hpos-30V.msp" "SPLASH=splash10-00kr-0053290000-93ea717e82d568a376ed" "submitter=Jun Ding (UC davis)" "MoNA Rating=0.33333333333333326"
Num Peaks: 4
539.514620 100.000000
494.456774 30.030030
311.306239 40.040040
266.248393 60.060060


Name: 7-MAHPDA [DMED-FAHFA]; [14:0-(7-O-15:0)];
Synon: $:00 ms2
Synon: $:05 30V CID
Synon: $:07 In-Silico-Spectrum
Synon: $:00in-source
DB#: MoNA011542
InChIKey: MQTXDUJVZFSMBT-UHFFFAOYSA-N
Precursor_type: [M+H]+
PrecursorMZ: 539.51462
Ion_mode: P
Comments: "molecular weight=538.507344" "formula=C33H66N2O3" "compound class=DMED-FAHFA" "isobars=13" "precursor [m+h]+=539.51462" "c2h7n loss (-45.0578462)=494.456774" "fa loss=311.306239" "fa loss-c2h7n (-45.0578462)=266.248393" "origin=DMED-FAHFA-Hpos-30V.msp" "SPLASH=splash10-00kr-0053290000-93ea717e82d568a376ed" "submitter=Jun Ding (UC davis)" "MoNA Rating=0.33333333333333326"
Num Peaks: 4
539.514620 100.000000
494.456774 30.030030
311.306239 40.040040
266.248393 60.060060


Name: 8-MAHPDA [DMED-FAHFA]; [14:0-(8-O-15:0)];
Synon: $:00 ms2
Synon: $:05 30V CID
Synon: $:07 In-Silico-Spectrum
Synon: $:00in-source
DB#: MoNA011543
InChIKey: CYZGZMTYUCCRMO-UHFFFAOYSA-N
Precursor_type: [M+H]+
PrecursorMZ: 539.51462
Ion_mode: P
Comments: "molecular weight=538.507344" "formula=C33H66N2O3" "compound class=DMED-FAHFA" "isobars=13" "precursor [m+h]+=539.51462" "c2h7n loss (-45.0578462)=494.456774" "fa loss=311.306239" "fa loss-c2h7n (-45.0578462)=266.248393" "origin=DMED-FAHFA-Hpos-30V.msp" "SPLASH=splash10-00kr-0053290000-93ea717e82d568a376ed" "submitter=Jun Ding (UC davis)" "MoNA Rating=0.33333333333333326"
Num Peaks: 4
539.514620 100.000000
494.456774 30.030030
311.306239 40.040040
266.248393 60.060060


Name: 9-MAHPDA [DMED-FAHFA]; [14:0-(9-O-15:0)];
Synon: $:00 ms2
Synon: $:05 30V CID
Synon: $:07 In-Silico-Spectrum
Synon: $:00in-source
DB#: MoNA011544
InChIKey: GREOXQBULJWSQV-UHFFFAOYSA-N
Precursor_type: [M+H]+
PrecursorMZ: 539.51462
Ion_mode: P
Comments: "molecular weight=538.507344" "formula=C33H66N2O3" "compound class=DMED-FAHFA" "isobars=13" "precursor [m+h]+=539.51462" "c2h7n loss (-45.0578462)=494.456774" "fa loss=311.306239" "fa loss-c2h7n (-45.0578462)=266.248393" "origin=DMED-FAHFA-Hpos-30V.msp" "SPLASH=splash10-00kr-0053290000-93ea717e82d568a376ed" "submitter=Jun Ding (UC davis)" "MoNA Rating=0.33333333333333326"
Num Peaks: 4
539.514620 100.000000
494.456774 30.030030
311.306239 40.040040
266.248393 60.060060


Name: 10-MAHPDA [DMED-FAHFA]; [14:0-(10-O-15:0)];
Synon: $:00 ms2
Synon: $:05 30V CID
Synon: $:07 In-Silico-Spectrum
Synon: $:00in-source
DB#: MoNA011545
InChIKey: GPDSFBGRMDEPAY-UHFFFAOYSA-N
Precursor_type: [M+H]+
PrecursorMZ: 539.51462
Ion_mode: P
Comments: "molecular weight=538.507344" "formula=C33H66N2O3" "compound class=DMED-FAHFA" "isobars=13" "precursor [m+h]+=539.51462" "c2h7n loss (-45.0578462)=494.456774" "fa loss=311.306239" "fa loss-c2h7n (-45.0578462)=266.248393" "origin=DMED-FAHFA-Hpos-30V.msp" "SPLASH=splash10-00kr-0053290000-93ea717e82d568a376ed" "submitter=Jun Ding (UC davis)" "MoNA Rating=0.33333333333333326"
Num Peaks: 4
539.514620 100.000000
494.456774 30.030030
311.306239 40.040040
266.248393 60.060060


Name: 11-MAHPDA [DMED-FAHFA]; [14:0-(11-O-15:0)];
Synon: $:00 ms2
Synon: $:05 30V CID
Synon: $:07 In-Silico-Spectrum
Synon: $:00in-source
DB#: MoNA011546
InChIKey: QGMGRNCZWXKENS-UHFFFAOYSA-N
Precursor_type: [M+H]+
PrecursorMZ: 539.51462
Ion_mode: P
Comments: "molecular weight=538.507344" "formula=C33H66N2O3" "compound class=DMED-FAHFA" "isobars=13" "precursor [m+h]+=539.51462" "c2h7n loss (-45.0578462)=494.456774" "fa loss=311.306239" "fa loss-c2h7n (-45.0578462)=266.248393" "origin=DMED-FAHFA-Hpos-30V.msp" "SPLASH=splash10-00kr-0053290000-93ea717e82d568a376ed" "submitter=Jun Ding (UC davis)" "MoNA Rating=0.33333333333333326"
Num Peaks: 4
539.514620 100.000000
494.456774 30.030030
311.306239 40.040040
266.248393 60.060060

